data;

param:
I: Value :=
0    62
1    54
2    99
3    19
4    69
5    80
6    79
7    35
8    55
9    73
10    75
11    17
12    65
13    65
14    57
15    55
16    34
17    31
18    57
19    38
20    14
21    29
22    25
23    34
24    30
25    23
26    58
27    35
28    76
29    58
30    49
31    90
32    12
33    48
34    9
35    34
36    80
37    89
38    69;

param TargetSum := 1247;
